unsat
(define-fun SC ((s (_ BitVec 4)) (t (_ BitVec 4))) Bool (not (= t #b0111)))
0.04user 0.00system 0:00.04elapsed 100%CPU (0avgtext+0avgdata 26516maxresident)k
0inputs+8outputs (0major+1338minor)pagefaults 0swaps
